
   7    4
  10   10   10   10

   0   0   0   0   0   2 2 4 
   4  10  10  10  10   1 3 
   3  10  10  10  10   2 6 5 
   4  10  10  10  10   2 6 5 
   2  10  10  10  10   1 7
   3  10  10  10  10   1 7
   0   0   0   0   0   0 
